NAME : pr439.60099.tour
COMMENT : Length = 60099
COMMENT : Found by LKH [Keld Helsgaun] Sat May 25 06:41:52 2013
TYPE : TOUR
DIMENSION : 88
TOUR_SECTION
49
44
79
57
36
35
77
75
73
63
64
23
21
19
102
104
144
147
145
143
153
156
139
125
99
129
163
172
250
248
259
319
324
325
307
267
268
233
223
275
296
336
363
378
387
401
404
405
418
429
415
419
414
389
379
377
348
352
291
290
286
232
189
188
187
281
282
342
341
373
381
391
393
398
407
422
433
430
424
408
434
435
439
284
228
186
83
51
-1
EOF
